  11,0	0,0	8,3	9,8	0,0	0,0	0,0	0,0	0,0	19,8
12,7	11,5	0,0	13,0	14,3	0,0	0,0	18,3	0,0	0,0
0,0	0,0	7,0	0,0	16,5	19,7	0,0	0,0	18,1	0,0
15,3	0,0	17,2	0,0	0,0	0,0	7,3	0,0	0,0	0,0
0,0	19,8	0,0	19,5	7,5	0,0	0,0	15,5	0,0	0,0
0,0	19,8	8,5	0,0	10,8	9,4	0,0	0,0	5,2	0,0
0,0	18,2	0,0	6,5	0,0	0,0	14,7	0,0	0,0	6,6
6,1	0,0	11,2	0,0	0,0	0,0	0,0	0,0	0,0	6,1
0,0	20,0	0,0	6,6	13,6	0,0	0,0	5,3	0,0	0,0
0,0	0,0	19,6	0,0	0,0	14,1	5,7	0,0	0,0	10,3
									
4,0	3,3	3,1	3,3	5,0	4,2	4,2	4,0	4,5	3,5
